p cnf 17 26
-16 5 0
14 2 -16 -17 -8 15 5 -11 1 -3 0
-2 16 -13 0
-13 -8 17 1 0
-2 -15 11 6 -10 -14 0
-14 4 15 0
12 13 -10 -16 0
-9 -2 -17 5 12 0
-13 10 -8 -16 17 -3 4 -9 -2 5 -6 -7 0
-8 -10 0
-2 -15 7 0
11 -3 12 5 -17 16 0
2 4 -5 3 -6 -15 0
5 9 -12 8 0
12 6 11 -2 0
12 10 16 -4 -15 -11 -5 -8 -9 -7 -3 -13 14 6 0
7 17 16 -14 -5 6 15 13 -4 11 -2 12 -9 0
15 -16 -7 11 3 -9 -10 -6 13 4 -17 -12 0
1 -15 13 -12 6 16 11 3 7 -10 -9 2 -14 8 0
-11 -17 -4 14 -3 6 13 0
16 -15 0
12 13 8 -5 6 17 -4 11 7 0
-7 -4 0
12 3 -15 -16 0
-10 -5 -1 0
2 -3 -16 -11 8 -4 0
